10
1 0 13
2 0 1
2 1 13
3 0 1
3 1 13
3 2 1
4 0 11
4 1 6
4 2 2
4 3 3
5 0 12
5 1 10
5 2 1
5 3 10
5 4 5
6 0 10
6 1 9
6 2 6
6 3 12
6 4 11
6 5 10
7 0 3
7 1 6
7 2 6
7 3 12
7 4 5
7 5 12
7 6 6
8 0 11
8 1 13
8 2 12
8 3 13
8 4 8
8 5 1
8 6 10
8 7 6
9 0 5
9 1 12
9 2 5
9 3 6
9 4 6
9 5 4
9 6 12
9 7 5
9 8 10
